solution status: optimal solution found
objective value:                     121907.802575246
d11(0,0)                                            1 	(obj:0)
d11(1,1)                                            1 	(obj:0)
d11(1,2)                                            1 	(obj:0)
d11(2,4)                                            1 	(obj:0)
d11(2,5)                                            1 	(obj:0)
d11(2,7)                                            1 	(obj:0)
d11(2,8)                                            1 	(obj:0)
d11(2,10)                                           1 	(obj:0)
d11(2,11)                                           1 	(obj:0)
d11(3,13)                                           1 	(obj:0)
d11(3,14)                                           1 	(obj:0)
d11(3,15)                                           1 	(obj:0)
d11(3,16)                                           1 	(obj:0)
d11(3,17)                                           1 	(obj:0)
d11(3,19)                                           1 	(obj:0)
d11(3,20)                                           1 	(obj:0)
d11(3,21)                                           1 	(obj:0)
d11(3,22)                                           1 	(obj:0)
d11(3,23)                                           1 	(obj:0)
d11(3,25)                                           1 	(obj:0)
d11(3,26)                                           1 	(obj:0)
d11(3,27)                                           1 	(obj:0)
d11(3,28)                                           1 	(obj:0)
d11(3,29)                                           1 	(obj:0)
d11(3,30)                                           1 	(obj:0)
d11(3,31)                                           1 	(obj:0)
d11(3,32)                                           1 	(obj:0)
d11(3,33)                                           1 	(obj:0)
d11(3,34)                                           1 	(obj:0)
d11(3,35)                                           1 	(obj:0)
d11(3,36)                                           1 	(obj:0)
d11(3,37)                                           1 	(obj:0)
d11(3,38)                                           1 	(obj:0)
d11(3,39)                                           1 	(obj:0)
d12(1,3)                                            1 	(obj:0)
d12(2,6)                                            1 	(obj:0)
d12(2,9)                                            1 	(obj:0)
d12(2,12)                                           1 	(obj:0)
d21(3,13)                                           1 	(obj:0)
d21(3,14)                                           1 	(obj:0)
d21(3,15)                                           1 	(obj:0)
d21(3,16)                                           1 	(obj:0)
d21(3,17)                                           1 	(obj:0)
d21(3,19)                                           1 	(obj:0)
d21(3,22)                                           1 	(obj:0)
d21(3,23)                                           1 	(obj:0)
d21(3,25)                                           1 	(obj:0)
d21(3,28)                                           1 	(obj:0)
d21(3,31)                                           1 	(obj:0)
STE(1,1)                             11532.9125136797 	(obj:0)
STE(0,0)                                        14175 	(obj:0)
STE(1,2)                              12529.678517013 	(obj:0)
STE(1,3)                             13498.5393896531 	(obj:0)
STE(2,4)                             8890.82502736001 	(obj:0)
STE(2,5)                              9887.5910306933 	(obj:0)
STE(2,6)                             10856.4519033334 	(obj:0)
STE(2,7)                             9887.59103069328 	(obj:0)
STE(2,8)                             10884.3570340266 	(obj:0)
STE(2,9)                             11853.2179066666 	(obj:0)
STE(2,10)                            10856.4519033334 	(obj:0)
STE(2,11)                            11853.2179066667 	(obj:0)
STE(2,12)                            12822.0787793067 	(obj:0)
STE(3,13)                            5542.60682069334 	(obj:0)
STE(3,14)                            6539.37282402663 	(obj:0)
STE(3,15)                            7756.82502736001 	(obj:0)
STE(3,16)                            6539.37282402664 	(obj:0)
STE(3,17)                            7536.13882735993 	(obj:0)
STE(3,18)                             8753.5910306933 	(obj:0)
STE(3,19)                            7508.23369666671 	(obj:0)
STE(3,20)                                   8504.9997 	(obj:0)
STE(3,21)                            9722.45190333338 	(obj:0)
STE(3,22)                            6539.37282402661 	(obj:0)
STE(3,23)                             7536.1388273599 	(obj:0)
STE(3,24)                            8753.59103069328 	(obj:0)
STE(3,25)                             7536.1388273599 	(obj:0)
STE(3,26)                            8532.90483069319 	(obj:0)
STE(3,27)                            9750.35703402657 	(obj:0)
STE(3,28)                            8504.99969999998 	(obj:0)
STE(3,29)                            9501.76570333327 	(obj:0)
STE(3,30)                            10719.2179066666 	(obj:0)
STE(3,31)                            7508.23369666671 	(obj:0)
STE(3,32)                                   8504.9997 	(obj:0)
STE(3,33)                            9722.45190333338 	(obj:0)
STE(3,34)                                   8504.9997 	(obj:0)
STE(3,35)                            9501.76570333329 	(obj:0)
STE(3,36)                            10719.2179066667 	(obj:0)
STE(3,37)                            9473.86057264008 	(obj:0)
STE(3,38)                            10470.6265759734 	(obj:0)
STE(3,39)                            11688.0787793067 	(obj:0)
y1(3,23)                             1095.70698300004 	(obj:0)
y1(3,25)                                  1992.796386 	(obj:0)
y1(3,26)                             1095.70698300004 	(obj:0)
y1(3,28)                                  1992.796386 	(obj:0)
y1(3,29)                             1095.70698300004 	(obj:0)
y1(3,31)                                  1992.796386 	(obj:0)
y1(3,32)                             1095.70698300004 	(obj:0)
y1(3,34)                                  1992.796386 	(obj:0)
y1(3,35)                             1095.70698300004 	(obj:0)
y1(3,37)                                  1992.796386 	(obj:0)
y1(3,38)                             1095.70698300004 	(obj:0)
BG(3)                                1204.56299667522 	(obj:10)
AVE(1)                               3199.95851117552 	(obj:0)
AVE(2)                               3265.15049132519 	(obj:0)
AVE(3)                               3291.35535332476 	(obj:0)
WG(1)                                3199.95851117552 	(obj:10)
WG(2)                                3265.15049132519 	(obj:10)
WG(3)                                3291.35535332476 	(obj:10)
BG(1)                                647.472442587992 	(obj:10)
BG(2)                                 582.28046243781 	(obj:10)
y1(1,1)                              1357.27873768823 	(obj:0)
y1(1,2)                              460.189334688295 	(obj:0)
y1(2,4)                              1357.27873768776 	(obj:0)
y1(2,5)                              460.189334687793 	(obj:0)
y1(2,7)                              1357.27873768776 	(obj:0)
y1(2,8)                              460.189334687793 	(obj:0)
y1(2,10)                             1357.27873768776 	(obj:0)
y1(2,11)                             460.189334687793 	(obj:0)
y1(3,13)                                  1992.796386 	(obj:0)
y1(3,14)                             1095.70698300004 	(obj:0)
y1(3,16)                                  1992.796386 	(obj:0)
y1(3,17)                             1095.70698300004 	(obj:0)
y1(3,19)                                  1992.796386 	(obj:0)
y1(3,20)                             1095.70698300004 	(obj:0)
y1(3,22)                                  1992.796386 	(obj:0)
y2(1,3)                              481.620410161164 	(obj:0)
y2(2,6)                              481.620410161727 	(obj:0)
y2(2,9)                              481.620410161727 	(obj:0)
y2(2,12)                             481.620410161726 	(obj:0)
